VFR400_40_1_Gap.txt
Set parameter Username
Academic license - for non-commercial use only - expires 2023-04-30
Set parameter Threads to value 8
Set parameter TimeLimit to value 3600
Gurobi Optimizer version 9.5.1 build v9.5.1rc2 (linux64)
Thread count: 4 physical cores, 8 logical processors, using up to 8 threads
Optimize a model with 9592000 rows, 6416001 columns and 25568000 nonzeros
Model fingerprint: 0x95ec46cd
Variable types: 16001 continuous, 6400000 integer (6400000 binary)
Coefficient statistics:
  Matrix range     [1e+00, 8e+05]
  Objective range  [1e+00, 1e+00]
  Bounds range     [1e+00, 1e+00]
  RHS range        [1e+00, 8e+05]
Presolve removed 3192000 rows and 3208000 columns (presolve time = 5s) ...
Presolve removed 3192000 rows and 3208000 columns (presolve time = 10s) ...
Presolve removed 3192000 rows and 3208000 columns (presolve time = 15s) ...
Presolve removed 3192000 rows and 3208000 columns (presolve time = 20s) ...
Presolve removed 3192000 rows and 3208000 columns (presolve time = 25s) ...
Presolve removed 3192000 rows and 3208000 columns (presolve time = 41s) ...
Presolve removed 3192000 rows and 3208000 columns
Presolve time: 44.97s
Presolved: 6400000 rows, 3208001 columns, 19184000 nonzeros
Variable types: 16001 continuous, 3192000 integer (3192000 binary)
Found heuristic solution: objective 28295.000000

Deterministic concurrent LP optimizer: primal simplex, dual simplex, and barrier
Showing barrier log only...

Root barrier log...

Elapsed ordering time = 5s
Elapsed ordering time = 10s
Ordering time: 2487.94s

Barrier performed 0 iterations in 3169.66 seconds (318.58 work units)
Barrier solve interrupted - model solved by another algorithm

Concurrent spin time: 2495.70s (can be avoided by choosing Method=3)

Solved with dual simplex

Root relaxation: objective 2.482000e+03, 2077370 iterations, 2547.06 seconds (31.33 work units)
Total elapsed time = 3279.39s

    Nodes    |    Current Node    |     Objective Bounds      |     Work
 Expl Unexpl |  Obj  Depth IntInf | Incumbent    BestBd   Gap | It/Node Time

     0     0 2482.00000    0 805200 28295.0000 2482.00000  91.2%     - 3633s

Explored 1 nodes (2231569 simplex iterations) in 3654.88 seconds (334.56 work units)
Thread count was 8 (of 8 available processors)

Solution count 1: 28295 

Time limit reached
Best objective 2.829500000000e+04, best bound 2.482000000000e+03, gap 91.2281%
